! DLPNO-CCSD(T) cc-pVTZ cc-pVTZ/C cc-pVTZ/JK RIJCOSX TightSCF
* xyz 0 3 
C  0.0  0.0  0.0
*
