! DLPNO-CCSD(T) cc-pVTZ cc-pVTZ/C cc-pVTZ/JK RIJCOSX TightSCF
* xyz 0 2 
F  0.0  0.0  0.0
*
