! UKS pbe d3bj def2-TZVP TightSCF Grid4 RI def2/J RIJCOSX
* xyz 0 3 
O  0.0  0.0  0.0
*
