! UKS pbe d3bj def2-TZVP TightSCF Grid4 RI def2/J RIJCOSX
* xyz 0 4 
P  0.0  0.0  0.0
*
