! RI-MP2 RIJCOSX cc-pVTZ cc-pVTZ/C def2/J TIGHTSCF
* xyz 0 2 
Cl 0.0  0.0  0.0
*
