! RI-MP2 cc-pVTZ cc-pVTZ/C cc-pVTZ/JK RIJCOSX TightSCF
* xyz 0 2 
I  0.0  0.0  0.0
*
