! RI-MP2 RIJCOSX cc-pVTZ cc-pVTZ/C def2/J TIGHTSCF
* xyz 0 4 
P  0.0  0.0  0.0
*
