! UKS B3LYP d3bj def2-SVP TightSCF Grid4 RI def2-SVP/J RIJCOSX
* xyz 0 2 
F  0.0  0.0  0.0
*
