! UKS B3LYP d3bj def2-SVP TightSCF Grid4 RI def2-SVP/J RIJCOSX
* xyz 0 4 
N  0.0  0.0  0.0
*
