! UKS wB97x d3 def2-TZVP TightSCF Grid5 def2/J RIJONX
* xyz 0 2 
Br 0.0  0.0  0.0
*
