! UKS b3lyp d3bj def2-TZVP TightSCF Grid4 RI def2/J RIJCOSX
* xyz 0 2 
F  0.0  0.0  0.0
*
